JulietBench/Juliet_Based_Patch_Bench/qemu/CWE-369-Divide-By-Zero/CVE_2016_9922_4299b90e9ba9ce5ca9024572804ba751aa1a7e70/Resultblit_region_is_unsafe_SnippetEQ.smt2
; benchmark generated from python API
(set-info :status unknown)
(declare-fun R () (_ BitVec 32))
(declare-fun rdi () (_ BitVec 64))
(assert
 (let (($x951 (= (_ bv0 32) R)))
 (let (($x55 (= (_ bv1 32) R)))
 (let ((?x6 ((_ extract 31 0) rdi)))
 (let ((?x7 ((_ zero_extend 32) ?x6)))
 (let ((?x11 (bvlshr ?x7 (_ bv31 64))))
 (let ((?x20 ((_ extract 0 0) ?x11)))
 (let ((?x27 (bvand ?x20 (_ bv1 1))))
 (let (($x26 (and (distinct (_ bv0 1) ?x27) true)))
 (let ((?x38 ((_ extract 31 31) rdi)))
 (let ((?x77 (concat (concat (concat (concat (concat ?x38 ?x38) ?x38) ?x38) ?x38) ?x38)))
 (let ((?x82 (concat (concat (concat (concat (concat ?x77 ?x38) ?x38) ?x38) ?x38) ?x38)))
 (let ((?x87 (concat (concat (concat (concat (concat ?x82 ?x38) ?x38) ?x38) ?x38) ?x38)))
 (let ((?x92 (concat (concat (concat (concat (concat ?x87 ?x38) ?x38) ?x38) ?x38) ?x38)))
 (let ((?x97 (concat (concat (concat (concat (concat ?x92 ?x38) ?x38) ?x38) ?x38) ?x38)))
 (let ((?x102 (concat (concat (concat (concat (concat ?x97 ?x38) ?x38) ?x38) ?x38) ?x38)))
 (let ((?x104 (concat (concat ?x102 ?x38) ?x6)))
 (let ((?x105 (bvmul (_ bv7 64) ?x104)))
 (let ((?x106 (bvadd (_ bv50 64) ?x105)))
 (let ((?x108 (bvlshr ?x106 (_ bv63 64))))
 (let ((?x109 ((_ extract 0 0) ?x108)))
 (let (($x110 (and (distinct (_ bv0 1) ?x109) true)))
 (let (($x33 (and $x110 $x26 $x55)))
 (let (($x53 (= (_ bv0 1) ?x27)))
 (let ((?x946 (bvadd (_ bv58 64) ?x105)))
 (let (($x777 (bvsge (_ bv4294967295 64) ?x946)))
 (let (($x60 (and $x777 $x53 $x951)))
 (let (($x876 (bvslt (_ bv4294967295 64) ?x946)))
 (let (($x64 (and $x876 $x53 $x55)))
 (let (($x927 (= (_ bv0 1) ?x109)))
 (let (($x62 (and $x927 $x26 $x951)))
 (let (($x61 (or $x62 $x64 $x60 $x33)))
 (and $x61 $x951)))))))))))))))))))))))))))))))))
(check-sat)
